peakDumbCharging = 33300; 
Machine = anon_enum(16); 
machineSpeed = [3700,3700,3700,3700,3700,3700,3700,3700,3700,3700,3700,3700,3700,3700,3700,3700]; 
machineLoad = [3700,3700,3700,3700,3700,3700,3700,3700,3700,3700,3700,3700,3700,3700,3700,3700]; 
Car = anon_enum(39); 
demandCar = [1320,14480,6040,15400,2160,8560,7280,3840,16440,23000,15840,4280,9120,10920,7440,3920,5080,11520,4520,28720,14040,17840,4640,10560,9320,4640,1480,1800,4640,9880,5800,320,4560,2280,4080,3400,3960,11440,6640]; 
arrivalCar = [73,72,68,67,65,65,65,64,64,64,63,63,62,59,59,58,57,54,53,53,52,50,49,49,48,47,47,46,46,44,44,44,41,41,40,39,38,38,35]; 
departureCar = [74,77,72,74,68,69,69,67,70,74,69,66,74,64,62,61,59,59,56,63,58,58,52,56,55,57,48,48,50,51,47,52,44,44,44,43,41,42,38]; 
